5 5
1 98 2 15 0 8 3 48 4 99
0 88 3 52 2 55 4 37 1 4
0 55 4 12 2 19 1 79 3 57
1 94 2 37 3 76 0 83 4 98
0 7 3 92 2 55 1 28 4 93
-1
0 2 5
0 2 4 5
0 1 3 5
0 1 3 4 5
0 1 2 4 5
-2
166 325
180 279 261
57 133 267
103 284 424 451
9 153 229 392

508 9
20 5 2 10 18
0 15 23 13 9
1 22 16 12 7
21 3 6 17 14
4 11 24 8 19
